p cnf 1369
-21 -427
-22 -430
-23 -433
-24 -436
-25 -439
-26 -442
-27 -445
-28 -448
-29 -451
-30 -454
-31 -457
-32 -460
-33 -463
-34 -466
-35 -469
-36 -472
-37 -475
-38 -478
-39 -481
-40 -484
-41 485
-42 486
-43 487
-44 488
-45 489
-46 490
-47 491
-48 492
-49 493
-50 494
-51 -22
-51 -23
22 23 51
-52 -24
-52 -25
24 25 52
-53 -26
-53 -27
26 27 53
-54 -28
-54 -29
28 29 54
-55 -30
-55 -31
30 31 55
-56 -32
-56 -33
32 33 56
-57 -34
-57 -35
34 35 57
-58 -36
-58 -37
36 37 58
-59 -38
-59 -39
38 39 59
-60 -40
-60 -41
40 41 60
-61 -42
-61 -43
42 43 61
-62 -44
-62 -45
44 45 62
-63 -46
-63 -47
46 47 63
-64 -48
-64 -49
48 49 64
-65 51
-65 52
-51 -52 65
-66 53
-66 54
-53 -54 66
-67 55
-67 56
-55 -56 67
-68 57
-68 58
-57 -58 68
-69 59
-69 60
-59 -60 69
-70 61
-70 62
-61 -62 70
-71 63
-71 64
-63 -64 71
-72 65
-72 66
-65 -66 72
-73 67
-73 68
-67 -68 73
-74 69
-74 70
-69 -70 74
-75 -50
-75 71
50 -71 75
-76 72
-76 73
-72 -73 76
-77 74
-77 75
-74 -75 77
-78 76
-78 77
-76 -77 78
-79 -21
-79 22
21 -22 79
-80 21
-80 -22
-21 22 80
-81 -79
-81 -80
79 80 81
-82 21
-82 22
-21 -22 82
-83 -21
-83 -81
21 81 83
-84 21
-84 81
-21 -81 84
-85 -83
-85 -84
83 84 85
-86 21
-86 -81
-21 81 86
-87 -82
-87 -86
82 86 87
-88 -22
-88 23
22 -23 88
-89 22
-89 -23
-22 23 89
-90 -88
-90 -89
88 89 90
-91 22
-91 23
-22 -23 91
-92 87
-92 -90
-87 90 92
-93 -87
-93 90
87 -90 93
-94 -92
-94 -93
92 93 94
-95 -87
-95 -90
87 90 95
-96 -91
-96 -95
91 95 96
-97 -23
-97 24
23 -24 97
-98 23
-98 -24
-23 24 98
-99 -97
-99 -98
97 98 99
-100 23
-100 24
-23 -24 100
-101 96
-101 -99
-96 99 101
-102 -96
-102 99
96 -99 102
-103 -101
-103 -102
101 102 103
-104 -96
-104 -99
96 99 104
-105 -100
-105 -104
100 104 105
-106 -24
-106 25
24 -25 106
-107 24
-107 -25
-24 25 107
-108 -106
-108 -107
106 107 108
-109 24
-109 25
-24 -25 109
-110 105
-110 -108
-105 108 110
-111 -105
-111 108
105 -108 111
-112 -110
-112 -111
110 111 112
-113 -105
-113 -108
105 108 113
-114 -109
-114 -113
109 113 114
-115 -25
-115 26
25 -26 115
-116 25
-116 -26
-25 26 116
-117 -115
-117 -116
115 116 117
-118 25
-118 26
-25 -26 118
-119 114
-119 -117
-114 117 119
-120 -114
-120 117
114 -117 120
-121 -119
-121 -120
119 120 121
-122 -114
-122 -117
114 117 122
-123 -118
-123 -122
118 122 123
-124 -26
-124 27
26 -27 124
-125 26
-125 -27
-26 27 125
-126 -124
-126 -125
124 125 126
-127 26
-127 27
-26 -27 127
-128 123
-128 -126
-123 126 128
-129 -123
-129 126
123 -126 129
-130 -128
-130 -129
128 129 130
-131 -123
-131 -126
123 126 131
-132 -127
-132 -131
127 131 132
-133 -27
-133 28
27 -28 133
-134 27
-134 -28
-27 28 134
-135 -133
-135 -134
133 134 135
-136 27
-136 28
-27 -28 136
-137 132
-137 -135
-132 135 137
-138 -132
-138 135
132 -135 138
-139 -137
-139 -138
137 138 139
-140 -132
-140 -135
132 135 140
-141 -136
-141 -140
136 140 141
-142 -28
-142 29
28 -29 142
-143 28
-143 -29
-28 29 143
-144 -142
-144 -143
142 143 144
-145 28
-145 29
-28 -29 145
-146 141
-146 -144
-141 144 146
-147 -141
-147 144
141 -144 147
-148 -146
-148 -147
146 147 148
-149 -141
-149 -144
141 144 149
-150 -145
-150 -149
145 149 150
-151 -29
-151 30
29 -30 151
-152 29
-152 -30
-29 30 152
-153 -151
-153 -152
151 152 153
-154 29
-154 30
-29 -30 154
-155 150
-155 -153
-150 153 155
-156 -150
-156 153
150 -153 156
-157 -155
-157 -156
155 156 157
-158 -150
-158 -153
150 153 158
-159 -154
-159 -158
154 158 159
-160 -30
-160 31
30 -31 160
-161 30
-161 -31
-30 31 161
-162 -160
-162 -161
160 161 162
-163 30
-163 31
-30 -31 163
-164 159
-164 -162
-159 162 164
-165 -159
-165 162
159 -162 165
-166 -164
-166 -165
164 165 166
-167 -159
-167 -162
159 162 167
-168 -163
-168 -167
163 167 168
-169 -31
-169 32
31 -32 169
-170 31
-170 -32
-31 32 170
-171 -169
-171 -170
169 170 171
-172 31
-172 32
-31 -32 172
-173 168
-173 -171
-168 171 173
-174 -168
-174 171
168 -171 174
-175 -173
-175 -174
173 174 175
-176 -168
-176 -171
168 171 176
-177 -172
-177 -176
172 176 177
-178 -32
-178 33
32 -33 178
-179 32
-179 -33
-32 33 179
-180 -178
-180 -179
178 179 180
-181 32
-181 33
-32 -33 181
-182 177
-182 -180
-177 180 182
-183 -177
-183 180
177 -180 183
-184 -182
-184 -183
182 183 184
-185 -177
-185 -180
177 180 185
-186 -181
-186 -185
181 185 186
-187 -33
-187 34
33 -34 187
-188 33
-188 -34
-33 34 188
-189 -187
-189 -188
187 188 189
-190 33
-190 34
-33 -34 190
-191 186
-191 -189
-186 189 191
-192 -186
-192 189
186 -189 192
-193 -191
-193 -192
191 192 193
-194 -186
-194 -189
186 189 194
-195 -190
-195 -194
190 194 195
-196 -34
-196 35
34 -35 196
-197 34
-197 -35
-34 35 197
-198 -196
-198 -197
196 197 198
-199 34
-199 35
-34 -35 199
-200 195
-200 -198
-195 198 200
-201 -195
-201 198
195 -198 201
-202 -200
-202 -201
200 201 202
-203 -195
-203 -198
195 198 203
-204 -199
-204 -203
199 203 204
-205 -35
-205 36
35 -36 205
-206 35
-206 -36
-35 36 206
-207 -205
-207 -206
205 206 207
-208 35
-208 36
-35 -36 208
-209 204
-209 -207
-204 207 209
-210 -204
-210 207
204 -207 210
-211 -209
-211 -210
209 210 211
-212 -204
-212 -207
204 207 212
-213 -208
-213 -212
208 212 213
-214 -36
-214 37
36 -37 214
-215 36
-215 -37
-36 37 215
-216 -214
-216 -215
214 215 216
-217 36
-217 37
-36 -37 217
-218 213
-218 -216
-213 216 218
-219 -213
-219 216
213 -216 219
-220 -218
-220 -219
218 219 220
-221 -213
-221 -216
213 216 221
-222 -217
-222 -221
217 221 222
-223 -37
-223 38
37 -38 223
-224 37
-224 -38
-37 38 224
-225 -223
-225 -224
223 224 225
-226 37
-226 38
-37 -38 226
-227 222
-227 -225
-222 225 227
-228 -222
-228 225
222 -225 228
-229 -227
-229 -228
227 228 229
-230 -222
-230 -225
222 225 230
-231 -226
-231 -230
226 230 231
-232 -38
-232 39
38 -39 232
-233 38
-233 -39
-38 39 233
-234 -232
-234 -233
232 233 234
-235 38
-235 39
-38 -39 235
-236 231
-236 -234
-231 234 236
-237 -231
-237 234
231 -234 237
-238 -236
-238 -237
236 237 238
-239 -231
-239 -234
231 234 239
-240 -235
-240 -239
235 239 240
-241 -39
-241 40
39 -40 241
-242 39
-242 -40
-39 40 242
-243 -241
-243 -242
241 242 243
-244 39
-244 40
-39 -40 244
-245 240
-245 -243
-240 243 245
-246 -240
-246 243
240 -243 246
-247 -245
-247 -246
245 246 247
-248 -240
-248 -243
240 243 248
-249 -244
-249 -248
244 248 249
-250 -40
-250 41
40 -41 250
-251 40
-251 -41
-40 41 251
-252 -250
-252 -251
250 251 252
-253 40
-253 41
-40 -41 253
-254 249
-254 -252
-249 252 254
-255 -249
-255 252
249 -252 255
-256 -254
-256 -255
254 255 256
-257 -249
-257 -252
249 252 257
-258 -253
-258 -257
253 257 258
-259 -41
-259 42
41 -42 259
-260 41
-260 -42
-41 42 260
-261 -259
-261 -260
259 260 261
-262 41
-262 42
-41 -42 262
-263 258
-263 -261
-258 261 263
-264 -258
-264 261
258 -261 264
-265 -263
-265 -264
263 264 265
-266 -258
-266 -261
258 261 266
-267 -262
-267 -266
262 266 267
-268 -42
-268 43
42 -43 268
-269 42
-269 -43
-42 43 269
-270 -268
-270 -269
268 269 270
-271 42
-271 43
-42 -43 271
-272 267
-272 -270
-267 270 272
-273 -267
-273 270
267 -270 273
-274 -272
-274 -273
272 273 274
-275 -267
-275 -270
267 270 275
-276 -271
-276 -275
271 275 276
-277 -43
-277 44
43 -44 277
-278 43
-278 -44
-43 44 278
-279 -277
-279 -278
277 278 279
-280 43
-280 44
-43 -44 280
-281 276
-281 -279
-276 279 281
-282 -276
-282 279
276 -279 282
-283 -281
-283 -282
281 282 283
-284 -276
-284 -279
276 279 284
-285 -280
-285 -284
280 284 285
-286 -44
-286 45
44 -45 286
-287 44
-287 -45
-44 45 287
-288 -286
-288 -287
286 287 288
-289 44
-289 45
-44 -45 289
-290 285
-290 -288
-285 288 290
-291 -285
-291 288
285 -288 291
-292 -290
-292 -291
290 291 292
-293 -285
-293 -288
285 288 293
-294 -289
-294 -293
289 293 294
-295 -45
-295 46
45 -46 295
-296 45
-296 -46
-45 46 296
-297 -295
-297 -296
295 296 297
-298 45
-298 46
-45 -46 298
-299 294
-299 -297
-294 297 299
-300 -294
-300 297
294 -297 300
-301 -299
-301 -300
299 300 301
-302 -294
-302 -297
294 297 302
-303 -298
-303 -302
298 302 303
-304 -46
-304 47
46 -47 304
-305 46
-305 -47
-46 47 305
-306 -304
-306 -305
304 305 306
-307 46
-307 47
-46 -47 307
-308 303
-308 -306
-303 306 308
-309 -303
-309 306
303 -306 309
-310 -308
-310 -309
308 309 310
-311 -303
-311 -306
303 306 311
-312 -307
-312 -311
307 311 312
-313 -47
-313 48
47 -48 313
-314 47
-314 -48
-47 48 314
-315 -313
-315 -314
313 314 315
-316 47
-316 48
-47 -48 316
-317 312
-317 -315
-312 315 317
-318 -312
-318 315
312 -315 318
-319 -317
-319 -318
317 318 319
-320 -312
-320 -315
312 315 320
-321 -316
-321 -320
316 320 321
-322 -48
-322 49
48 -49 322
-323 48
-323 -49
-48 49 323
-324 -322
-324 -323
322 323 324
-325 48
-325 49
-48 -49 325
-326 321
-326 -324
-321 324 326
-327 -321
-327 324
321 -324 327
-328 -326
-328 -327
326 327 328
-329 -321
-329 -324
321 324 329
-330 -325
-330 -329
325 329 330
-331 -49
-331 50
49 -50 331
-332 49
-332 -50
-49 50 332
-333 -331
-333 -332
331 332 333
-334 49
-334 50
-49 -50 334
-335 330
-335 -333
-330 333 335
-336 -330
-336 333
330 -333 336
-337 -335
-337 -336
335 336 337
-338 -330
-338 -333
330 333 338
-339 -334
-339 -338
334 338 339
-340 21
-340 -85
-21 85 340
-341 -21
-341 23
21 -23 341
-342 -340
-342 -341
340 341 342
-343 21
-343 -94
-21 94 343
-344 -21
-344 24
21 -24 344
-345 -343
-345 -344
343 344 345
-346 21
-346 -103
-21 103 346
-347 -21
-347 25
21 -25 347
-348 -346
-348 -347
346 347 348
-349 21
-349 -112
-21 112 349
-350 -21
-350 26
21 -26 350
-351 -349
-351 -350
349 350 351
-352 21
-352 -121
-21 121 352
-353 -21
-353 27
21 -27 353
-354 -352
-354 -353
352 353 354
-355 21
-355 -130
-21 130 355
-356 -21
-356 28
21 -28 356
-357 -355
-357 -356
355 356 357
-358 21
-358 -139
-21 139 358
-359 -21
-359 29
21 -29 359
-360 -358
-360 -359
358 359 360
-361 21
-361 -148
-21 148 361
-362 -21
-362 30
21 -30 362
-363 -361
-363 -362
361 362 363
-364 21
-364 -157
-21 157 364
-365 -21
-365 31
21 -31 365
-366 -364
-366 -365
364 365 366
-367 21
-367 -166
-21 166 367
-368 -21
-368 32
21 -32 368
-369 -367
-369 -368
367 368 369
-370 21
-370 -175
-21 175 370
-371 -21
-371 33
21 -33 371
-372 -370
-372 -371
370 371 372
-373 21
-373 -184
-21 184 373
-374 -21
-374 34
21 -34 374
-375 -373
-375 -374
373 374 375
-376 21
-376 -193
-21 193 376
-377 -21
-377 35
21 -35 377
-378 -376
-378 -377
376 377 378
-379 21
-379 -202
-21 202 379
-380 -21
-380 36
21 -36 380
-381 -379
-381 -380
379 380 381
-382 21
-382 -211
-21 211 382
-383 -21
-383 37
21 -37 383
-384 -382
-384 -383
382 383 384
-385 21
-385 -220
-21 220 385
-386 -21
-386 38
21 -38 386
-387 -385
-387 -386
385 386 387
-388 21
-388 -229
-21 229 388
-389 -21
-389 39
21 -39 389
-390 -388
-390 -389
388 389 390
-391 21
-391 -238
-21 238 391
-392 -21
-392 40
21 -40 392
-393 -391
-393 -392
391 392 393
-394 21
-394 -247
-21 247 394
-395 -21
-395 41
21 -41 395
-396 -394
-396 -395
394 395 396
-397 21
-397 -256
-21 256 397
-398 -21
-398 42
21 -42 398
-399 -397
-399 -398
397 398 399
-400 21
-400 -265
-21 265 400
-401 -21
-401 43
21 -43 401
-402 -400
-402 -401
400 401 402
-403 21
-403 -274
-21 274 403
-404 -21
-404 44
21 -44 404
-405 -403
-405 -404
403 404 405
-406 21
-406 -283
-21 283 406
-407 -21
-407 45
21 -45 407
-408 -406
-408 -407
406 407 408
-409 21
-409 -292
-21 292 409
-410 -21
-410 46
21 -46 410
-411 -409
-411 -410
409 410 411
-412 21
-412 -301
-21 301 412
-413 -21
-413 47
21 -47 413
-414 -412
-414 -413
412 413 414
-415 21
-415 -310
-21 310 415
-416 -21
-416 48
21 -48 416
-417 -415
-417 -416
415 416 417
-418 21
-418 -319
-21 319 418
-419 -21
-419 49
21 -49 419
-420 -418
-420 -419
418 419 420
-421 21
-421 -328
-21 328 421
-422 -21
-422 50
21 -50 422
-423 -421
-423 -422
421 422 423
-424 21
-424 -337
-21 337 424
-425 1
-425 78
-1 -78 425
-426 -78
-426 79
78 -79 426
-427 -425
-427 -426
425 426 427
-428 2
-428 78
-2 -78 428
-429 -78
-429 -342
78 342 429
-430 -428
-430 -429
428 429 430
-431 3
-431 78
-3 -78 431
-432 -78
-432 -345
78 345 432
-433 -431
-433 -432
431 432 433
-434 4
-434 78
-4 -78 434
-435 -78
-435 -348
78 348 435
-436 -434
-436 -435
434 435 436
-437 5
-437 78
-5 -78 437
-438 -78
-438 -351
78 351 438
-439 -437
-439 -438
437 438 439
-440 6
-440 78
-6 -78 440
-441 -78
-441 -354
78 354 441
-442 -440
-442 -441
440 441 442
-443 7
-443 78
-7 -78 443
-444 -78
-444 -357
78 357 444
-445 -443
-445 -444
443 444 445
-446 8
-446 78
-8 -78 446
-447 -78
-447 -360
78 360 447
-448 -446
-448 -447
446 447 448
-449 9
-449 78
-9 -78 449
-450 -78
-450 -363
78 363 450
-451 -449
-451 -450
449 450 451
-452 10
-452 78
-10 -78 452
-453 -78
-453 -366
78 366 453
-454 -452
-454 -453
452 453 454
-455 11
-455 78
-11 -78 455
-456 -78
-456 -369
78 369 456
-457 -455
-457 -456
455 456 457
-458 12
-458 78
-12 -78 458
-459 -78
-459 -372
78 372 459
-460 -458
-460 -459
458 459 460
-461 13
-461 78
-13 -78 461
-462 -78
-462 -375
78 375 462
-463 -461
-463 -462
461 462 463
-464 14
-464 78
-14 -78 464
-465 -78
-465 -378
78 378 465
-466 -464
-466 -465
464 465 466
-467 15
-467 78
-15 -78 467
-468 -78
-468 -381
78 381 468
-469 -467
-469 -468
467 468 469
-470 16
-470 78
-16 -78 470
-471 -78
-471 -384
78 384 471
-472 -470
-472 -471
470 471 472
-473 17
-473 78
-17 -78 473
-474 -78
-474 -387
78 387 474
-475 -473
-475 -474
473 474 475
-476 18
-476 78
-18 -78 476
-477 -78
-477 -390
78 390 477
-478 -476
-478 -477
476 477 478
-479 19
-479 78
-19 -78 479
-480 -78
-480 -393
78 393 480
-481 -479
-481 -480
479 480 481
-482 20
-482 78
-20 -78 482
-483 -78
-483 -396
78 396 483
-484 -482
-484 -483
482 483 484
-485 -78
-485 -399
78 399 485
-486 -78
-486 -402
78 402 486
-487 -78
-487 -405
78 405 487
-488 -78
-488 -408
78 408 488
-489 -78
-489 -411
78 411 489
-490 -78
-490 -414
78 414 490
-491 -78
-491 -417
78 417 491
-492 -78
-492 -420
78 420 492
-493 -78
-493 -423
78 423 493
-494 -78
-494 424
78 -424 494
-495 -50
-495 339
50 -339 495
-496 21
-496 -495
-21 495 496
496
